
Log started (V11.0.0) Sun Apr 13 13:19:39 2008

Tried aggregator 1 time.
Reduced MIP has 210 rows, 2001 columns, and 4010 nonzeros.
Presolve time =    0.02 sec.
Clique table members: 200.
MIP emphasis: balance optimality and feasibility.
MIP search method: dynamic search.
Parallel mode: none, using 1 thread.
Root relaxation solution time =    0.03 sec.

        Nodes                                         Cuts/
   Node  Left     Objective  IInf  Best Integer     Best Node    ItCnt     Gap

*     0+    0                         9885.0000      180.4330      314   98.17%
*     0+    0                          199.0000      180.4330      314    9.33%
      0     0      181.0000    20      199.0000      Fract: 9      343    9.05%
*     0+    0                          198.0000      181.0000      343    8.59%
      0     0      181.0000    22      198.0000     Covers: 2      364    8.59%
*     0+    0                          195.0000      181.0000      364    7.18%
      0     0      181.0000    24      195.0000     Covers: 2      371    7.18%
*     0+    0                          192.0000      181.0000      371    5.73%
*     0+    0                          190.0000      181.0000      371    4.74%
*     0+    0                          189.0000      181.0000      371    4.23%
      0     2      181.0000    24      189.0000      181.0000      371    4.23%
*    20+   16                          186.0000      181.0000     1073    2.69%
*    50+   30                          185.0000      181.0000     1649    2.16%
    100    71      182.0000    16      185.0000      181.0000     2789    2.16%
    200   113      184.0000    20      185.0000      181.0000     4819    2.16%
    300   184      182.0000    18      185.0000      181.0000     6522    2.16%
    400   248      182.0000    16      185.0000      181.0000     9046    2.16%
*   483+  208                          184.0000      182.0000    12023    1.09%
    500   210    infeasible            184.0000      182.0000    12223    1.09%
    600   192      183.0000    37      184.0000      182.0000    18137    1.09%
    700   195      182.0000    48      184.0000      182.0000    27975    1.09%
    800   216      183.0000    21      184.0000      182.0000    35826    1.09%
    900   297      183.0000    31      184.0000      182.0000    45854    1.09%
   1000   372      182.0000    25      184.0000      182.0000    52956    1.09%
Elapsed time =   9.23 sec. (tree size =  0.14 MB, solutions = 10)
   1100   454      183.0000    12      184.0000      182.0000    61885    1.09%
   1200   524      183.0000    37      184.0000      182.0000    69849    1.09%
   1300   604    infeasible            184.0000      182.0000    79607    1.09%
   1400   680      183.0000    64      184.0000      182.0000    89817    1.09%
   1500   757      183.0000    51      184.0000      182.0000   102084    1.09%
   1600   837      183.0000    52      184.0000      182.0000   112195    1.09%
   1700   913      183.0000    43      184.0000      182.0000   123970    1.09%
*  1734   228      integral     0      183.0000      182.0000   128236    0.55%
   1800   248    infeasible            183.0000      182.0000   144872    0.55%
   1900   282    infeasible            183.0000      182.0000   168105    0.55%
   2000   280      182.0000    61      183.0000      182.0000   194722    0.55%
Elapsed time =  30.22 sec. (tree size =  0.11 MB, solutions = 11)
   2100   260      182.0000    67      183.0000      182.0000   228418    0.55%
   2200   252      182.0000    77      183.0000      182.0000   261959    0.55%
   2300   234    infeasible            183.0000      182.0000   294286    0.55%
   2400   193      182.0000    67      183.0000      182.0000   333344    0.55%
   2500   226      182.0000    67      183.0000      182.0000   361917    0.55%
   2600   267    infeasible            183.0000      182.0000   384924    0.55%
   2700   258    infeasible            183.0000      182.0000   414972    0.55%
   2800   209    infeasible            183.0000      182.0000   449450    0.55%
   2900   188    infeasible            183.0000      182.0000   480458    0.55%
   3000   172    infeasible            183.0000      182.0000   511487    0.55%
Elapsed time = 102.16 sec. (tree size =  0.08 MB, solutions = 11)
   3100   146    infeasible            183.0000      182.0000   543616    0.55%
   3200   134    infeasible            183.0000      182.0000   574049    0.55%
   3300   120      182.0000    71      183.0000      182.0000   608390    0.55%
   3400    95    infeasible            183.0000      182.0000   638776    0.55%
   3500    73    infeasible            183.0000      182.0000   672718    0.55%
   3600    78      182.0000    90      183.0000      182.0000   700633    0.55%
   3700    82    infeasible            183.0000      182.0000   724215    0.55%
   3800    49      182.0000    82      183.0000      182.0000   753274    0.55%
   3900    29      182.0000    80      183.0000      182.0000   784560    0.55%
   4000    16    infeasible            183.0000      182.0000   816832    0.55%
Elapsed time = 172.52 sec. (tree size =  0.02 MB, solutions = 11)

Cover cuts applied:  711
Mixed integer rounding cuts applied:  34
Zero-half cuts applied:  3
Gomory fractional cuts applied:  7

Solution pool: 11 solutions saved.

MIP - Integer optimal solution:  Objective = 1.8300000000e+002
Solution time =  178.16 sec.  Iterations = 840417  Nodes = 4073


Incumbent solution
Variable Name           Solution Value
Cmax                        183.000000
X_1_8                         1.000000
X_2_5                         1.000000
X_3_8                         1.000000
X_4_8                         1.000000
X_5_5                         1.000000
X_6_7                         1.000000
X_7_8                         1.000000
X_8_7                         1.000000
X_9_7                         1.000000
X_10_5                        1.000000
X_11_3                        1.000000
X_12_3                        1.000000
X_13_2                        1.000000
X_14_4                        1.000000
X_15_5                        1.000000
X_16_8                        1.000000
X_17_1                        1.000000
X_18_8                        1.000000
X_19_10                       1.000000
X_20_2                        1.000000
X_21_5                        1.000000
X_22_10                       1.000000
X_23_6                        1.000000
X_24_3                        1.000000
X_25_9                        1.000000
X_26_5                        1.000000
X_27_7                        1.000000
X_28_1                        1.000000
X_29_10                       1.000000
X_30_6                        1.000000
X_31_8                        1.000000
X_32_10                       1.000000
X_33_9                        1.000000
X_34_7                        1.000000
X_35_1                        1.000000
X_36_7                        1.000000
X_37_4                        1.000000
X_38_4                        1.000000
X_39_10                       1.000000
X_40_6                        1.000000
X_41_5                        1.000000
X_42_6                        1.000000
X_43_9                        1.000000
X_44_6                        1.000000
X_45_8                        1.000000
X_46_7                        1.000000
X_47_3                        1.000000
X_48_1                        1.000000
X_49_7                        1.000000
X_50_9                        1.000000
X_51_8                        1.000000
X_52_2                        1.000000
X_53_5                        1.000000
X_54_8                        1.000000
X_55_6                        1.000000
X_56_9                        1.000000
X_57_7                        1.000000
X_58_1                        1.000000
X_59_4                        1.000000
X_60_4                        1.000000
X_61_10                       1.000000
X_62_2                        1.000000
X_63_8                        1.000000
X_64_2                        1.000000
X_65_8                        1.000000
X_66_9                        1.000000
X_67_6                        1.000000
X_68_9                        1.000000
X_69_4                        1.000000
X_70_10                       1.000000
X_71_6                        1.000000
X_72_8                        1.000000
X_73_10                       1.000000
X_74_1                        1.000000
X_75_10                       1.000000
X_76_7                        1.000000
X_77_10                       1.000000
X_78_9                        1.000000
X_79_2                        1.000000
X_80_4                        1.000000
X_81_9                        1.000000
X_82_3                        1.000000
X_83_4                        1.000000
X_84_6                        1.000000
X_85_3                        1.000000
X_86_7                        1.000000
X_87_1                        1.000000
X_88_3                        1.000000
X_89_5                        1.000000
X_90_10                       1.000000
X_91_9                        1.000000
X_92_4                        1.000000
X_93_10                       1.000000
X_94_6                        1.000000
X_95_3                        1.000000
X_96_6                        1.000000
X_97_8                        1.000000
X_98_2                        1.000000
X_99_5                        1.000000
X_100_9                       1.000000
X_101_9                       1.000000
X_102_4                       1.000000
X_103_1                       1.000000
X_104_8                       1.000000
X_105_7                       1.000000
X_106_1                       1.000000
X_107_1                       1.000000
X_108_2                       1.000000
X_109_3                       1.000000
X_110_8                       1.000000
X_111_5                       1.000000
X_112_2                       1.000000
X_113_7                       1.000000
X_114_8                       1.000000
X_115_8                       1.000000
X_116_7                       1.000000
X_117_6                       1.000000
X_118_2                       1.000000
X_119_4                       1.000000
X_120_6                       1.000000
X_121_6                       1.000000
X_122_8                       1.000000
X_123_9                       1.000000
X_124_1                       1.000000
X_125_3                       1.000000
X_126_9                       1.000000
X_127_4                       1.000000
X_128_4                       1.000000
X_129_9                       1.000000
X_130_9                       1.000000
X_131_5                       1.000000
X_132_7                       1.000000
X_133_5                       1.000000
X_134_8                       1.000000
X_135_6                       1.000000
X_136_9                       1.000000
X_137_4                       1.000000
X_138_2                       1.000000
X_139_8                       1.000000
X_140_3                       1.000000
X_141_10                      1.000000
X_142_8                       1.000000
X_143_3                       1.000000
X_144_2                       1.000000
X_145_4                       1.000000
X_146_4                       1.000000
X_147_2                       1.000000
X_148_4                       1.000000
X_149_9                       1.000000
X_150_1                       1.000000
X_151_6                       1.000000
X_152_1                       1.000000
X_153_8                       1.000000
X_154_4                       1.000000
X_155_7                       1.000000
X_156_6                       1.000000
X_157_6                       1.000000
X_158_9                       1.000000
X_159_8                       1.000000
X_160_6                       1.000000
X_161_10                      1.000000
X_162_1                       1.000000
X_163_1                       1.000000
X_164_3                       1.000000
X_165_8                       1.000000
X_166_2                       1.000000
X_167_3                       1.000000
X_168_2                       1.000000
X_169_9                       1.000000
X_170_3                       1.000000
X_171_10                      1.000000
X_172_3                       1.000000
X_173_3                       1.000000
X_174_10                      1.000000
X_175_9                       1.000000
X_176_7                       1.000000
X_177_10                      1.000000
X_178_2                       1.000000
X_179_4                       1.000000
X_180_7                       1.000000
X_181_10                      1.000000
X_182_10                      1.000000
X_183_7                       1.000000
X_184_6                       1.000000
X_185_2                       1.000000
X_186_1                       1.000000
X_187_5                       1.000000
X_188_1                       1.000000
X_189_8                       1.000000
X_190_8                       1.000000
X_191_10                      1.000000
X_192_5                       1.000000
X_193_2                       1.000000
X_194_9                       1.000000
X_195_2                       1.000000
X_196_2                       1.000000
X_197_7                       1.000000
X_198_3                       1.000000
X_199_1                       1.000000
X_200_3                       1.000000
All other variables in the range 1-2001 are 0.
